NAME : rat99.tsp
COMMENT : Optimal tour for rat99.tsp
TYPE : TOUR
DIMENSION : 99
Total Length: 1291.953116615213
TOUR_SECTION
1
2
3
4
5
6
7
8
9
18
17
27
26
35
36
44
45
54
63
72
81
80
78
79
89
90
99
98
97
96
88
87
86
95
94
93
92
91
82
83
84
85
77
76
75
73
74
64
55
46
47
38
48
39
40
50
49
59
58
57
56
65
66
67
68
69
70
71
62
61
60
51
52
53
43
34
33
42
41
32
31
30
29
37
28
19
20
21
22
23
24
25
16
15
14
13
12
11
10
-1
EOF
